NAME: random-83-30932
TYPE: TSP
COMMENT: size=83 seed=30932
DIMENSION: 168
EDGE_WEIGHT_TYPE: EUC_2D
NODE_COORD_SECTION
+0 124 72
-0 124 72
+1 847 20
-1 623 590
+2 119 371
-2 366 78
+3 703 501
-3 393 348
+4 691 442
-4 107 35
+5 685 287
-5 742 664
+6 989 750
-6 200 227
+7 563 437
-7 178 160
+8 838 48
-8 24 612
+9 932 9
-9 490 72
+10 517 680
-10 885 758
+11 676 884
-11 57 657
+12 363 871
-12 209 877
+13 818 367
-13 112 630
+14 512 70
-14 379 765
+15 550 277
-15 725 772
+16 386 483
-16 460 774
+17 44 749
-17 647 638
+18 30 14
-18 438 846
+19 134 349
-19 15 27
+20 98 189
-20 198 67
+21 12 709
-21 376 142
+22 327 941
-22 405 311
+23 181 252
-23 116 463
+24 650 321
-24 706 552
+25 439 973
-25 824 844
+26 846 402
-26 424 770
+27 451 82
-27 91 830
+28 702 956
-28 251 621
+29 517 608
-29 947 986
+30 662 153
-30 84 798
+31 483 644
-31 199 220
+32 627 750
-32 852 837
+33 874 539
-33 546 701
+34 61 323
-34 558 447
+35 189 348
-35 122 570
+36 607 259
-36 738 797
+37 914 422
-37 513 320
+38 534 142
-38 3 628
+39 755 152
-39 944 952
+40 734 400
-40 542 598
+41 397 778
-41 816 984
+42 483 611
-42 753 290
+43 719 817
-43 502 780
+44 531 375
-44 708 903
+45 103 714
-45 270 102
+46 272 94
-46 685 62
+47 444 124
-47 889 626
+48 583 444
-48 287 882
+49 875 815
-49 745 341
+50 191 100
-50 878 985
+51 787 577
-51 531 692
+52 755 522
-52 210 693
+53 583 636
-53 448 660
+54 807 826
-54 778 770
+55 538 990
-55 183 880
+56 495 567
-56 724 733
+57 908 141
-57 103 10
+58 833 753
-58 950 854
+59 422 968
-59 274 115
+60 658 213
-60 593 295
+61 651 190
-61 144 759
+62 274 84
-62 962 147
+63 169 645
-63 548 381
+64 26 295
-64 89 864
+65 92 749
-65 560 144
+66 924 805
-66 70 885
+67 855 471
-67 0 377
+68 874 23
-68 378 509
+69 526 966
-69 251 431
+70 279 534
-70 677 593
+71 525 407
-71 796 775
+72 566 731
-72 354 162
+73 370 918
-73 29 203
+74 894 553
-74 644 831
+75 604 785
-75 437 441
+76 785 720
-76 253 200
+77 303 32
-77 671 678
+78 73 843
-78 437 544
+79 396 5
-79 532 872
+80 23 956
-80 830 34
+81 698 381
-81 639 27
+82 717 94
-82 66 839
+83 432 494
-83 816 988
PRECEDENCE_SECTION
+0 -0
+1 -1
+2 -2
+3 -3
+4 -4
+5 -5
+6 -6
+7 -7
+8 -8
+9 -9
+10 -10
+11 -11
+12 -12
+13 -13
+14 -14
+15 -15
+16 -16
+17 -17
+18 -18
+19 -19
+20 -20
+21 -21
+22 -22
+23 -23
+24 -24
+25 -25
+26 -26
+27 -27
+28 -28
+29 -29
+30 -30
+31 -31
+32 -32
+33 -33
+34 -34
+35 -35
+36 -36
+37 -37
+38 -38
+39 -39
+40 -40
+41 -41
+42 -42
+43 -43
+44 -44
+45 -45
+46 -46
+47 -47
+48 -48
+49 -49
+50 -50
+51 -51
+52 -52
+53 -53
+54 -54
+55 -55
+56 -56
+57 -57
+58 -58
+59 -59
+60 -60
+61 -61
+62 -62
+63 -63
+64 -64
+65 -65
+66 -66
+67 -67
+68 -68
+69 -69
+70 -70
+71 -71
+72 -72
+73 -73
+74 -74
+75 -75
+76 -76
+77 -77
+78 -78
+79 -79
+80 -80
+81 -81
+82 -82
+83 -83
EOF
